(set-logic HORN)
(declare-fun state (Int Int Int (Array Int Int) Int (Array Int Int) Int Int Int Int Int Int Int Int Int (Array Int Int) (Array Int Int) (Array Int Int) (Array Int Int) (Array Int Int) (Array Int Int) (Array Int Int) (Array Int Int) Int Int Int Int Int Int Int Int (Array Int Int) (Array Int Int) (Array Int Int) (Array Int Int) (Array Int Int) (Array Int Int) (Array Int Int) Bool Bool Bool Bool Int Int Int) Bool)
(assert (forall ((|D_19| Int) (|.y.43| Int) (|.y.44| Int) (|E_19| (Array Int Int)) (|H_19| Int) (|I_19| (Array Int Int)) (|G_19| Int) (|A_20| Int) (|.y.45| Int) (|.y.46| Int) (|.y.47| Int) (|.y.48| Int) (|.y.49| Int) (|.y.50| Int) (|.y.51| Int) (|.y.52| (Array Int Int)) (|.y.53| (Array Int Int)) (|.y.54| (Array Int Int)) (|.y.55| (Array Int Int)) (|.y.56| (Array Int Int)) (|.y.57| (Array Int Int)) (|.y.58| (Array Int Int)) (|.y.59| (Array Int Int)) (|.y.60| Int) (|.y.61| Int) (|.y.62| Int) (|.y.63| Int) (|.y.64| Int) (|.y.65| Int) (|.y.66| Int) (|.y.67| Int) (|.y.68| (Array Int Int)) (|.y.69| (Array Int Int)) (|.y.70| (Array Int Int)) (|.y.71| (Array Int Int)) (|.y.72| (Array Int Int)) (|.y.73| (Array Int Int)) (|.y.74| (Array Int Int)) (|.loc.75| Bool) (|.loc.76| Bool) (|.loc.77| Bool) (|.loc.78| Bool) (|J_19| Int) (|H_0| Int) (|F_19| Int) (|.loc.119| Bool) (|.loc.120| Bool) (|.loc.117| Bool) (|.y.85| Int) (|.y.79| Int) (|.y.82| (Array Int Int)) (|.y.83| Int) (|.y.84| (Array Int Int)) (|.y.86| Int) (|.loc.118| Bool) (|.y.94| (Array Int Int)) (|.y.102| Int) (|.y.103| Int) (|.y.110| (Array Int Int)) (|.y.104| Int) (|.y.111| (Array Int Int)) (|.y.105| Int) (|.y.112| (Array Int Int)) (|.y.106| Int) (|.y.113| (Array Int Int)) (|.y.107| Int) (|.y.114| (Array Int Int)) (|.y.108| Int) (|.y.115| (Array Int Int)) (|.y.116| (Array Int Int)) (|.y.109| Int) (|.y.80| Int) (|.y.87| Int) (|.y.88| Int) (|.y.89| Int) (|.y.90| Int) (|.y.91| Int) (|.y.92| Int) (|.y.93| Int) (|.y.81| Int) (|.y.101| (Array Int Int)) (|.y.100| (Array Int Int)) (|.y.99| (Array Int Int)) (|.y.98| (Array Int Int)) (|.y.97| (Array Int Int)) (|.y.96| (Array Int Int)) (|.y.95| (Array Int Int)) (|.xtv.1| Int) (|.xtv.2| Int) (|.xtv.3| Int)) (=> (and (and (and (not .loc.75) (not .loc.76)) (not .loc.77)) (not .loc.78)) (state |D_19| |.y.43| |.y.44| |E_19| |H_19| |I_19| |G_19| |A_20| |.y.45| |.y.46| |.y.47| |.y.48| |.y.49| |.y.50| |.y.51| |.y.52| |.y.53| |.y.54| |.y.55| |.y.56| |.y.57| |.y.58| |.y.59| |.y.60| |.y.61| |.y.62| |.y.63| |.y.64| |.y.65| |.y.66| |.y.67| |.y.68| |.y.69| |.y.70| |.y.71| |.y.72| |.y.73| |.y.74| |.loc.75| |.loc.76| |.loc.77| |.loc.78| |J_19| |H_0| |F_19|))))
(assert (forall ((|D_19| Int) (|.y.43| Int) (|.y.44| Int) (|E_19| (Array Int Int)) (|H_19| Int) (|I_19| (Array Int Int)) (|G_19| Int) (|A_20| Int) (|.y.45| Int) (|.y.46| Int) (|.y.47| Int) (|.y.48| Int) (|.y.49| Int) (|.y.50| Int) (|.y.51| Int) (|.y.52| (Array Int Int)) (|.y.53| (Array Int Int)) (|.y.54| (Array Int Int)) (|.y.55| (Array Int Int)) (|.y.56| (Array Int Int)) (|.y.57| (Array Int Int)) (|.y.58| (Array Int Int)) (|.y.59| (Array Int Int)) (|.y.60| Int) (|.y.61| Int) (|.y.62| Int) (|.y.63| Int) (|.y.64| Int) (|.y.65| Int) (|.y.66| Int) (|.y.67| Int) (|.y.68| (Array Int Int)) (|.y.69| (Array Int Int)) (|.y.70| (Array Int Int)) (|.y.71| (Array Int Int)) (|.y.72| (Array Int Int)) (|.y.73| (Array Int Int)) (|.y.74| (Array Int Int)) (|.loc.75| Bool) (|.loc.76| Bool) (|.loc.77| Bool) (|.loc.78| Bool) (|J_19| Int) (|H_0| Int) (|F_19| Int) (|.loc.119| Bool) (|.loc.120| Bool) (|.loc.117| Bool) (|.y.85| Int) (|.y.79| Int) (|.y.82| (Array Int Int)) (|.y.83| Int) (|.y.84| (Array Int Int)) (|.y.86| Int) (|.loc.118| Bool) (|.y.94| (Array Int Int)) (|.y.102| Int) (|.y.103| Int) (|.y.110| (Array Int Int)) (|.y.104| Int) (|.y.111| (Array Int Int)) (|.y.105| Int) (|.y.112| (Array Int Int)) (|.y.106| Int) (|.y.113| (Array Int Int)) (|.y.107| Int) (|.y.114| (Array Int Int)) (|.y.108| Int) (|.y.115| (Array Int Int)) (|.y.116| (Array Int Int)) (|.y.109| Int) (|.y.80| Int) (|.y.87| Int) (|.y.88| Int) (|.y.89| Int) (|.y.90| Int) (|.y.91| Int) (|.y.92| Int) (|.y.93| Int) (|.y.81| Int) (|.y.101| (Array Int Int)) (|.y.100| (Array Int Int)) (|.y.99| (Array Int Int)) (|.y.98| (Array Int Int)) (|.y.97| (Array Int Int)) (|.y.96| (Array Int Int)) (|.y.95| (Array Int Int)) (|.xtv.1| Int) (|.xtv.2| Int) (|.xtv.3| Int)) (=> (and (state |D_19| |.y.43| |.y.44| |E_19| |H_19| |I_19| |G_19| |A_20| |.y.45| |.y.46| |.y.47| |.y.48| |.y.49| |.y.50| |.y.51| |.y.52| |.y.53| |.y.54| |.y.55| |.y.56| |.y.57| |.y.58| |.y.59| |.y.60| |.y.61| |.y.62| |.y.63| |.y.64| |.y.65| |.y.66| |.y.67| |.y.68| |.y.69| |.y.70| |.y.71| |.y.72| |.y.73| |.y.74| |.loc.75| |.loc.76| |.loc.77| |.loc.78| |J_19| |H_0| |F_19|) (let ((.def_55 (not .loc.75))) (let ((.def_56 (not .loc.76))) (let ((.def_58 (not .loc.77))) (let ((.def_60 (not .loc.78))) (let ((.def_63 (not .loc.119))) (let ((.def_69 (= (select I_19 J_19) (select E_19 F_19)))) (let ((.def_72 (<= D_19 0))) (let ((.def_74 (not (<= F_19 0)))) (let ((.def_91 (<= H_19 0))) (let ((.def_92 (not .def_91))) (let ((.def_97 (not (<= J_19 0)))) (let ((.def_98 (or .def_91 .def_97))) (let ((.def_99 (and (and (or .def_72 .def_74) (and (not (<= A_20 G_19)) (and (and (not .def_72) (and (= (+ D_19 (+ G_19 (* (- 1) F_19))) 0) (= (+ H_19 (+ G_19 (* (- 1) J_19))) 0))) .def_92))) .def_98))) (let ((.def_105 (not .loc.117))) (let ((.def_109 (= .y.85 0))) (let ((.def_111 (<= .y.60 G_19))) (let ((.def_114 (= D_19 .y.79))) (let ((.def_117 (= E_19 .y.82))) (let ((.def_120 (= A_20 .y.83))) (let ((.def_123 (= .y.52 .y.84))) (let ((.def_126 (= .y.60 .y.86))) (let ((.def_137 (= (+ G_19 (* (- 1) .y.85)) (- 1)))) (let ((.def_139 (= H_19 .y.83))) (let ((.def_141 (= I_19 .y.84))) (let ((.def_143 (= A_20 .y.86))) (let ((.def_158 (not .loc.118))) (let ((.def_161 (<= .y.61 G_19))) (let ((.def_164 (= .y.61 .y.102))) (let ((.def_168 (and .loc.75 .def_92))) (let ((.def_180 (= .y.94 (store .y.52 J_19 (select I_19 F_19))))) (let ((.def_182 (<= A_20 0))) (let ((.def_183 (not .def_182))) (let ((.def_187 (= (+ G_19 (+ A_20 (* (- 1) J_19))) 0))) (let ((.def_190 (= (+ H_19 (+ G_19 (* (- 1) F_19))) 0))) (let ((.def_193 (or .def_74 .def_91))) (let ((.def_195 (or .def_97 .def_182))) (let ((.def_197 (= .y.60 .y.102))) (let ((.def_202 (and .loc.75 .loc.76))) (let ((.def_215 (<= .y.62 G_19))) (let ((.def_218 (= .y.62 .y.103))) (let ((.def_221 (= .y.68 .y.110))) (let ((.def_246 (= .y.61 .y.103))) (let ((.def_266 (not .loc.120))) (let ((.def_269 (<= .y.63 G_19))) (let ((.def_272 (= .y.63 .y.104))) (let ((.def_275 (= .y.69 .y.111))) (let ((.def_279 (and .loc.76 .def_168))) (let ((.def_303 (= .y.62 .y.104))) (let ((.def_326 (<= .y.64 G_19))) (let ((.def_329 (= .y.64 .y.105))) (let ((.def_332 (= .y.70 .y.112))) (let ((.def_336 (and .loc.76 .def_92))) (let ((.def_363 (= .y.63 .y.105))) (let ((.def_388 (<= .y.65 G_19))) (let ((.def_391 (= .y.65 .y.106))) (let ((.def_394 (= .y.71 .y.113))) (let ((.def_426 (= .y.64 .y.106))) (let ((.def_452 (<= .y.66 G_19))) (let ((.def_455 (= .y.66 .y.107))) (let ((.def_458 (= .y.72 .y.114))) (let ((.def_493 (= .y.65 .y.107))) (let ((.def_524 (<= .y.67 G_19))) (let ((.def_528 (= .y.73 .y.115))) (let ((.def_563 (= .y.66 .y.108))) (let ((.def_598 (<= .y.51 .y.44))) (let ((.def_734 (<= .y.43 0))) (or (or (or (or (or (or (or (or (or (or (or (or (or (or (and (and .def_63 .loc.120) (or (or (and (and .loc.78 .def_58) (or (or (and (or (or (and (and .def_55 (and .loc.76 (and (not .def_69) .def_99))) .loc.117) (and (and (and (and (and (and (and (and .def_56 (and .loc.75 .def_105)) .def_109) .def_111) .def_114) .def_117) .def_120) .def_123) .def_126)) (and (and (and (and (and .def_117 (and .def_114 (and .def_105 (and .def_55 (and .loc.76 (and .def_69 .def_99)))))) .def_137) .def_139) .def_141) .def_143)) .loc.118) (and (and (and (= .y.68 .y.94) (and (and .def_126 (and .def_123 (and .def_120 (and .def_117 (and .def_114 (and .def_109 (and .def_56 (and .def_55 .loc.117)))))))) .def_158)) .def_161) .def_164)) (and (and (and (and (not .def_111) (and (and (and (and (and .def_158 (and .def_143 (and .def_141 (and .def_139 (and .def_137 (and .def_117 (and .def_114 (and .def_56 (and .loc.117 .def_168))))))))) .def_180) .def_183) .def_187) .def_190)) .def_193) .def_195) .def_197))) (and (and (and (and (= .y.69 .y.94) (and .def_60 (and .def_164 (and .def_158 (and .def_126 (and .def_123 (and .def_120 (and .def_117 (and .def_114 (and .def_109 (and .def_105 (and .loc.77 .def_202)))))))))))) .def_215) .def_218) .def_221)) (and (and (not .def_161) (and .def_221 (and .def_197 (and .def_195 (and .def_193 (and .def_190 (and .def_187 (and .def_183 (and .def_180 (and .def_158 (and .def_143 (and .def_141 (and .def_139 (and .def_137 (and .def_117 (and .def_114 (and .def_56 (and .def_105 (and .def_58 (and .def_55 (and .loc.78 .def_92))))))))))))))))))))) .def_246))) (and (and (and (and (= .y.70 .y.94) (and (and .def_221 (and .def_218 (and .def_60 (and .def_164 (and .def_126 (and .def_123 (and .def_120 (and .def_117 (and .def_114 (and .def_109 (and .loc.119 (and .loc.118 (and .loc.117 (and .def_55 (and .loc.76 .loc.77))))))))))))))) .def_266)) .def_269) .def_272) .def_275)) (and (and (not .def_215) (and .def_275 (and .def_266 (and .def_246 (and .def_221 (and .def_60 (and .def_197 (and .def_195 (and .def_193 (and .def_190 (and .def_187 (and .def_183 (and .def_180 (and .def_143 (and .def_141 (and .def_139 (and .def_137 (and .def_117 (and .def_114 (and .loc.119 (and .loc.118 (and .loc.117 (and .loc.77 .def_279))))))))))))))))))))))) .def_303)) (and (and (and (and (= .y.71 .y.94) (and .def_275 (and .def_272 (and .def_266 (and .def_221 (and .def_218 (and .def_60 (and .def_164 (and .def_126 (and .def_123 (and .def_120 (and .def_117 (and .def_114 (and .def_109 (and .def_56 (and .def_105 (and .loc.119 (and .loc.118 (and .loc.75 .loc.77))))))))))))))))))) .def_326) .def_329) .def_332)) (and (and (not .def_269) (and .def_332 (and .def_303 (and .def_275 (and .def_266 (and .def_246 (and .def_221 (and .def_60 (and .def_197 (and .def_195 (and .def_193 (and .def_190 (and .def_187 (and .def_183 (and .def_180 (and .def_143 (and .def_141 (and .def_139 (and .def_137 (and .def_117 (and .def_114 (and .def_105 (and .loc.119 (and .loc.118 (and .def_55 (and .loc.77 .def_336)))))))))))))))))))))))))) .def_363)) (and (and (and (and (= .y.72 .y.94) (and .def_332 (and .def_329 (and .def_275 (and .def_272 (and .def_266 (and .def_221 (and .def_218 (and .def_60 (and .def_164 (and .def_158 (and .def_126 (and .def_123 (and .def_120 (and .def_117 (and .def_114 (and .def_109 (and .def_56 (and .loc.119 (and .loc.117 (and .loc.77 .def_55))))))))))))))))))))) .def_388) .def_391) .def_394)) (and (and (not .def_326) (and .def_394 (and .def_363 (and .def_332 (and .def_303 (and .def_275 (and .def_266 (and .def_246 (and .def_221 (and .def_60 (and .def_197 (and .def_195 (and .def_193 (and .def_190 (and .def_187 (and .def_183 (and .def_180 (and .def_158 (and .def_143 (and .def_141 (and .def_139 (and .def_137 (and .def_117 (and .def_114 (and .def_56 (and .loc.119 (and .loc.117 (and .loc.77 .def_168)))))))))))))))))))))))))))) .def_426)) (and (and (and (and (= .y.73 .y.94) (and .def_394 (and .def_391 (and .def_332 (and .def_329 (and .def_275 (and .def_272 (and .def_266 (and .def_221 (and .def_218 (and .def_60 (and .def_164 (and .def_158 (and .def_126 (and .def_123 (and .def_120 (and .def_117 (and .def_114 (and .def_109 (and .def_105 (and .loc.119 (and .def_58 .def_202)))))))))))))))))))))) .def_452) .def_455) .def_458)) (and (and (not .def_388) (and .def_458 (and .def_426 (and .def_394 (and .def_363 (and .def_332 (and .def_303 (and .def_275 (and .def_266 (and .def_246 (and .def_221 (and .def_60 (and .def_197 (and .def_195 (and .def_193 (and .def_190 (and .def_187 (and .def_183 (and .def_180 (and .def_158 (and .def_143 (and .def_141 (and .def_139 (and .def_137 (and .def_117 (and .def_114 (and .def_56 (and .def_105 (and .loc.119 (and .def_55 (and .loc.77 .def_92))))))))))))))))))))))))))))))) .def_493)) (and (and (= .y.67 .y.108) (and (and (= .y.74 .y.94) (and .def_458 (and .def_455 (and .def_394 (and .def_391 (and .def_332 (and .def_329 (and .def_275 (and .def_272 (and .def_266 (and .def_221 (and .def_218 (and .def_60 (and .def_164 (and .def_126 (and .def_123 (and .def_120 (and .def_117 (and .def_114 (and .def_109 (and .def_63 (and .loc.118 (and .loc.117 (and .def_58 (and .loc.76 .def_55))))))))))))))))))))))))) .def_524)) .def_528)) (and (and (not .def_452) (and .def_528 (and .def_493 (and .def_458 (and .def_426 (and .def_394 (and .def_363 (and .def_332 (and .def_303 (and .def_275 (and .def_266 (and .def_246 (and .def_221 (and .def_60 (and .def_197 (and .def_195 (and .def_193 (and .def_190 (and .def_187 (and .def_183 (and .def_180 (and .def_143 (and .def_141 (and .def_139 (and .def_137 (and .def_117 (and .def_114 (and .def_63 (and .loc.118 (and .loc.117 (and .def_58 .def_279))))))))))))))))))))))))))))))) .def_563)) (and (= .y.58 .y.116) (and (= .y.57 .y.115) (and (= .y.56 .y.114) (and (= .y.55 .y.113) (and (= .y.54 .y.112) (and (= .y.53 .y.111) (and (= .y.52 .y.110) (and (= .y.51 .y.109) (and (= .y.50 .y.108) (and (= .y.49 .y.107) (and (= .y.48 .y.106) (and (= .y.47 .y.105) (and (= .y.46 .y.104) (and (= .y.45 .y.103) (and (= A_20 .y.102) (and (= G_19 .y.86) (and (= .y.43 .y.79) (and (and (= .y.59 .y.94) (and .def_266 (and .def_60 (and .def_141 (and .def_139 (and .def_117 (and .def_109 (and .def_56 (and .def_105 (and .def_63 (and .loc.118 (and .loc.75 .def_58)))))))))))) .def_598))))))))))))))))))) (and (= .y.74 .y.116) (and (= .y.67 .y.109) (and (not .def_524) (and .def_563 (and .def_528 (and .def_493 (and .def_458 (and .def_426 (and .def_394 (and .def_363 (and .def_332 (and .def_303 (and .def_275 (and .def_266 (and .def_246 (and .def_221 (and .def_60 (and .def_197 (and .def_195 (and .def_193 (and .def_190 (and .def_187 (and .def_183 (and .def_180 (and .def_143 (and .def_141 (and .def_139 (and .def_137 (and .def_117 (and .def_114 (and .def_105 (and .def_63 (and .loc.118 (and .def_58 (and .def_55 .def_336)))))))))))))))))))))))))))))))))))) (and (not (<= .y.80 0)) (and (not (<= .y.83 0)) (and (not (<= .y.85 0)) (and (not (<= .y.86 0)) (and (not (<= .y.87 0)) (and (not (<= .y.88 0)) (and (not (<= .y.89 0)) (and (not (<= .y.90 0)) (and (not (<= .y.91 0)) (and (not (<= .y.92 0)) (and (not (<= .y.93 0)) (and (= .y.81 0) (and .def_266 (and .def_60 (and .def_158 (and .def_114 (and .def_56 (and .def_63 (and .loc.117 (and .def_55 .def_58))))))))))))))))))))) (and (= .y.59 .y.101) (and (= .y.58 .y.100) (and (= .y.57 .y.99) (and (= .y.56 .y.98) (and (= .y.55 .y.97) (and (= .y.54 .y.96) (and (= .y.53 .y.95) (and (= .y.52 .y.94) (and (= .y.51 .y.93) (and (= .y.50 .y.92) (and (= .y.49 .y.91) (and (= .y.48 .y.90) (and (= .y.47 .y.89) (and (= .y.46 .y.88) (and (= .y.45 .y.87) (and (= G_19 .y.85) (and (= .y.43 .y.80) (and (or .def_74 .def_734) (and (not .def_598) (and (= (+ .y.43 (+ .y.44 (* (- 1) F_19))) 0) (and (= (+ .y.44 (+ H_19 (* (- 1) J_19))) 0) (and (not .def_734) (and (= (+ .y.44 (* (- 1) .y.81)) (- 1)) (and (= .y.82 (store E_19 F_19 H_0)) (and (= .y.84 (store I_19 J_19 H_0)) (and .def_266 (and .def_60 (and .def_158 (and .def_143 (and .def_139 (and .def_114 (and .def_56 (and .def_63 (and .loc.117 (and .def_58 (and .loc.75 (and .def_92 .def_98))))))))))))))))))))))))))))))))))))))))))))))))))))))))))))))))))))))))))))))))))))))))))))))))))))))))) (state |.y.79| |.y.80| |.y.81| |.y.82| |.y.83| |.y.84| |.y.85| |.y.86| |.y.87| |.y.88| |.y.89| |.y.90| |.y.91| |.y.92| |.y.93| |.y.94| |.y.95| |.y.96| |.y.97| |.y.98| |.y.99| |.y.100| |.y.101| |.y.102| |.y.103| |.y.104| |.y.105| |.y.106| |.y.107| |.y.108| |.y.109| |.y.110| |.y.111| |.y.112| |.y.113| |.y.114| |.y.115| |.y.116| |.loc.117| |.loc.118| |.loc.119| |.loc.120| |.xtv.1| |.xtv.2| |.xtv.3|))))
(assert (forall ((|D_19| Int) (|.y.43| Int) (|.y.44| Int) (|E_19| (Array Int Int)) (|H_19| Int) (|I_19| (Array Int Int)) (|G_19| Int) (|A_20| Int) (|.y.45| Int) (|.y.46| Int) (|.y.47| Int) (|.y.48| Int) (|.y.49| Int) (|.y.50| Int) (|.y.51| Int) (|.y.52| (Array Int Int)) (|.y.53| (Array Int Int)) (|.y.54| (Array Int Int)) (|.y.55| (Array Int Int)) (|.y.56| (Array Int Int)) (|.y.57| (Array Int Int)) (|.y.58| (Array Int Int)) (|.y.59| (Array Int Int)) (|.y.60| Int) (|.y.61| Int) (|.y.62| Int) (|.y.63| Int) (|.y.64| Int) (|.y.65| Int) (|.y.66| Int) (|.y.67| Int) (|.y.68| (Array Int Int)) (|.y.69| (Array Int Int)) (|.y.70| (Array Int Int)) (|.y.71| (Array Int Int)) (|.y.72| (Array Int Int)) (|.y.73| (Array Int Int)) (|.y.74| (Array Int Int)) (|.loc.75| Bool) (|.loc.76| Bool) (|.loc.77| Bool) (|.loc.78| Bool) (|J_19| Int) (|H_0| Int) (|F_19| Int) (|.loc.119| Bool) (|.loc.120| Bool) (|.loc.117| Bool) (|.y.85| Int) (|.y.79| Int) (|.y.82| (Array Int Int)) (|.y.83| Int) (|.y.84| (Array Int Int)) (|.y.86| Int) (|.loc.118| Bool) (|.y.94| (Array Int Int)) (|.y.102| Int) (|.y.103| Int) (|.y.110| (Array Int Int)) (|.y.104| Int) (|.y.111| (Array Int Int)) (|.y.105| Int) (|.y.112| (Array Int Int)) (|.y.106| Int) (|.y.113| (Array Int Int)) (|.y.107| Int) (|.y.114| (Array Int Int)) (|.y.108| Int) (|.y.115| (Array Int Int)) (|.y.116| (Array Int Int)) (|.y.109| Int) (|.y.80| Int) (|.y.87| Int) (|.y.88| Int) (|.y.89| Int) (|.y.90| Int) (|.y.91| Int) (|.y.92| Int) (|.y.93| Int) (|.y.81| Int) (|.y.101| (Array Int Int)) (|.y.100| (Array Int Int)) (|.y.99| (Array Int Int)) (|.y.98| (Array Int Int)) (|.y.97| (Array Int Int)) (|.y.96| (Array Int Int)) (|.y.95| (Array Int Int)) (|.xtv.1| Int) (|.xtv.2| Int) (|.xtv.3| Int)) (=> (state |D_19| |.y.43| |.y.44| |E_19| |H_19| |I_19| |G_19| |A_20| |.y.45| |.y.46| |.y.47| |.y.48| |.y.49| |.y.50| |.y.51| |.y.52| |.y.53| |.y.54| |.y.55| |.y.56| |.y.57| |.y.58| |.y.59| |.y.60| |.y.61| |.y.62| |.y.63| |.y.64| |.y.65| |.y.66| |.y.67| |.y.68| |.y.69| |.y.70| |.y.71| |.y.72| |.y.73| |.y.74| |.loc.75| |.loc.76| |.loc.77| |.loc.78| |J_19| |H_0| |F_19|) (not (and .loc.78 (and (not .loc.77) (and .loc.75 .loc.76)))))))
(check-sat)
